
    shelx.res created by SHELXL-2014/7

 
TITL om_P
CELL 0.3344 9.351687 8.58117 5.15974 90 106.288 90
ZERR 2 0.0048 0.0030 0.0010 0 0.026 0
LATT 1
SYMM 0.500-x, y, 0.500-z
SFAC Si Mg Fe Al Ca Na O
UNIT 1 1 1 1 1 1 1
 
BOND
FMAP 2
LIST 4
PLAN 20
L.S. 10
 
omit    -2   8   1
omit    -1   5   1
omit    -2   8   2
omit    -8  12   4
 
WGHT    0.025600    7.329200
FVAR       0.85501   0.57454   0.63615   0.57204   0.42855
SI1   1    0.538529    0.348744    0.227207    11.00000    0.00834    0.00597 =
         0.00536   -0.00046    0.00209    0.00069
SI2   1    0.538746    0.160167    0.730339    11.00000    0.00721    0.00614 =
         0.00628   -0.00139    0.00224   -0.00018
AL1   4    0.250000    0.346303    0.750000    21.00000    0.01080    0.00397 =
         0.00679    0.00000    0.00045    0.00000
MG2   2    0.250000    0.160684    0.250000    31.00000    0.00310    0.00648 =
         0.00532    0.00000    0.00240    0.00000
NA3   6    0.250000    0.556856    0.250000    41.00000    0.01055    0.00606 =
         0.00117    0.00000   -0.00578    0.00000
CA4   5    0.250000    0.946888    0.750000    51.00000    0.01120    0.00815 =
         0.01103    0.00000    0.00281    0.00000
O1    7    0.361531    0.341082    0.121706    11.00000    0.00633
O2    7    0.362923    0.175146    0.652004    11.00000    0.00904
O3    7    0.611276    0.513611    0.316522    11.00000    0.00802
O4    7    0.606452    0.992014    0.812699    11.00000    0.01015
O5    7    0.607368    0.272018   -0.002355    11.00000    0.00988
O6    7    0.603538    0.233640    0.490927    11.00000    0.00702
HKLF 4
 
REM  om_P
REM R1 =  0.0505 for     409 Fo > 4sig(Fo)  and  0.0505 for all     410 data
REM     67 parameters refined using      0 restraints
 
END  
     
WGHT      0.0299      6.1449 

REM Highest difference peak  0.682,  deepest hole -0.590,  1-sigma level  0.145
Q1    1   0.5494  0.4493  0.1818  11.00000  0.05    0.68
Q2    1   0.6222  0.1833  0.8850  11.00000  0.05    0.59
Q3    1   0.5020  0.2054  0.0608  11.00000  0.05    0.57
Q4    1   0.5430  0.2732  0.3356  11.00000  0.05    0.52
Q5    1   0.4621  0.9277  0.7517  11.00000  0.05    0.51
Q6    1   0.5822  1.0158  0.6924  11.00000  0.05    0.47
Q7    1   0.3478  0.3030  0.1845  11.00000  0.05    0.47
Q8    1   0.5316  1.0465  0.6782  11.00000  0.05    0.47
Q9    1   0.2828  0.2218  0.1929  11.00000  0.05    0.46
Q10   1   0.4761  0.5832  0.4011  11.00000  0.05    0.45
Q11   1   0.2095  0.2803  0.8047  11.00000  0.05    0.45
Q12   1   0.6171  0.1563  0.0293  11.00000  0.05    0.44
Q13   1   0.5046  0.2374  0.4477  11.00000  0.05    0.44
Q14   1   0.7291  0.1737  0.4728  11.00000  0.05    0.43
Q15   1   0.2367  0.2465  0.1990  11.00000  0.05    0.43
Q16   1   0.4191  0.3661  0.2294  11.00000  0.05    0.42
Q17   1   0.3765  0.0784  0.7222  11.00000  0.05    0.42
Q18   1   0.6165  0.2377  0.0644  11.00000  0.05    0.41
Q19   1   0.7211  0.4293  0.4646  11.00000  0.05    0.41
Q20   1   0.2748  0.0934  0.2061  11.00000  0.05    0.40
