
    shelx.res created by SHELXL-2014/7

 
TITL om_P
CELL 0.3344 9.351687 8.58117 5.15974 90 106.288 90
ZERR 2 0.0048 0.0030 0.0010 0 0.026 0
LATT 1
SYMM 0.500-x, y, 0.500-z
SFAC Si Mg Fe Al Ca Na O
UNIT 1 1 1 1 1 1 1
 
BOND
FMAP 2
LIST 4
PLAN 20
L.S. 10
 
omit -8   9   7
omit -6   7   3
 
omit    -1   5   1
omit     0   0   2
omit    -2   8   2
 
WGHT    0.025600    7.329200
FVAR       0.15973   0.57946   0.63647   0.57875   0.42883
SI1   1    0.538891    0.348945    0.226774    11.00000    0.00899    0.00763 =
         0.00672   -0.00028    0.00413    0.00030
SI2   1    0.538334    0.160213    0.730737    11.00000    0.00592    0.00571 =
         0.00571   -0.00144    0.00155    0.00009
AL1   4    0.250000    0.346057    0.750000    21.00000    0.01180    0.00367 =
         0.00985    0.00000    0.00298    0.00000
MG2   2    0.250000    0.160564    0.250000    31.00000    0.00414    0.00830 =
         0.00271    0.00000    0.00045    0.00000
NA3   6    0.250000    0.557066    0.250000    41.00000    0.01376    0.00508 =
         0.00262    0.00000   -0.00769    0.00000
CA4   5    0.250000    0.946991    0.750000    51.00000    0.01120    0.00895 =
         0.01124    0.00000    0.00418    0.00000
O1    7    0.361219    0.341507    0.122864    11.00000    0.00572
O2    7    0.363883    0.175752    0.651331    11.00000    0.01023
O3    7    0.612210    0.512527    0.316278    11.00000    0.00723
O4    7    0.604575    0.991760    0.812527    11.00000    0.01232
O5    7    0.606237    0.271893   -0.003340    11.00000    0.01033
O6    7    0.604396    0.233405    0.492045    11.00000    0.00801
HKLF 4
 
REM  om_P
REM R1 =  0.0598 for     413 Fo > 4sig(Fo)  and  0.0601 for all     416 data
REM     67 parameters refined using      0 restraints
 
END  
     
WGHT      0.0251      7.3773 

REM Highest difference peak  0.685,  deepest hole -0.707,  1-sigma level  0.193
Q1    1   0.4122  0.3640  0.2344  11.00000  0.05    0.68
Q2    1   0.5024  0.2039  0.0538  11.00000  0.05    0.67
Q3    1   0.3411  0.3098  0.1698  11.00000  0.05    0.63
Q4    1   0.5469  0.4447  0.1932  11.00000  0.05    0.59
Q5    1   0.2703  0.3030  0.8354  11.00000  0.05    0.59
Q6    1   0.2309  0.2267  0.1958  11.00000  0.05    0.55
Q7    1   0.6196  0.1772  0.8873  11.00000  0.05    0.55
Q8    1   0.2926  0.1013  0.2287  11.00000  0.05    0.54
Q9    1   0.6712  0.3828  0.0042  11.00000  0.05    0.53
Q10   1   0.6025  0.2220  0.0519  11.00000  0.05    0.52
Q11   1   0.6118  0.2703  0.5620  11.00000  0.05    0.51
Q12   1   0.7204  0.1771  0.4676  11.00000  0.05    0.50
Q13   1   0.6384  0.4687  0.4543  11.00000  0.05    0.50
Q14   1   0.6434  1.0114  0.8026  11.00000  0.05    0.50
Q15   1   0.3801  0.0749  0.7120  11.00000  0.05    0.50
Q16   1   0.7500  0.1997  0.7500  10.50000  0.05    0.50
Q17   1   0.4604  0.1972  0.6928  11.00000  0.05    0.49
Q18   1   0.2945  0.3794  0.7502  11.00000  0.05    0.48
Q19   1   0.5476  0.2761  0.3244  11.00000  0.05    0.48
Q20   1   0.5143  1.0194  0.5104  11.00000  0.05    0.48
